networks/zoo_62_186/zoo_62_186.txt
Number of groups: 23
Flow 8: {14 20} {20 11} {11 12} {12 43} 
Flow 15: {7 26} {26 30} {30 61} 
Flow 25: {12 13} {13 18} {18 49} 
Flow 28: {9 31} {31 22} {22 53} 
Flow 33: {5 6} {6 17} {17 10} {10 9} {9 40} 
Flow 42: {8 1} {1 4} {4 3} {3 23} {23 54} 
Flow 50: {10 17} {17 48} 
Flow 53: {22 23} {23 3} {3 14} {14 21} {21 52} 
Flow 56: {17 6} {6 5} {5 30} {30 26} {26 57} 
Flow 60: {20 14} {14 3} {3 4} {4 35} 
Flow 115: {11 20} {20 15} {15 16} {16 5} {5 36} 
Flow 118: {31 9} {9 10} {10 41} 
Flow 119: {13 12} {12 11} {11 42} 
Flow 122: {18 19} {19 21} {21 14} {14 45} 
Flow 129: {30 29} {29 60} 
Flow 132: {4 1} {1 2} {2 33} 
Flow 135: {1 8} {8 7} {7 38} 
Flow 148: {2 24} {24 55} 
Flow 152: {23 22} {22 31} {31 62} 
Flow 157: {21 19} {19 18} {18 13} {13 44} 
Flow 169: {26 7} {7 8} {8 39} 
Flow 183: {30 5} {5 16} {16 15} {15 20} {20 51} 
Flow 183: {27 26} 
Time taken running everything: 2 seconds
