networks/zoo_62_186/zoo_62_186.sol
<?xml version = "1.0" encoding="UTF-8" standalone="yes"?>
<CPLEXSolution version="1.2">
 <header
   problemName="networks/zoo_62_186/zoo_62_186.lp"
   solutionName="incumbent"
   solutionIndex="-1"
   objectiveValue="23"
   solutionTypeValue="3"
   solutionTypeString="primal"
   solutionStatusValue="101"
   solutionStatusString="integer optimal solution"
   solutionMethodString="mip"
   primalFeasible="1"
   dualFeasible="1"
   MIPNodes="0"
   MIPIterations="5398"
   writeLevel="3"/>
 <quality
   epInt="1.0000000000000001e-05"
   epRHS="9.9999999999999995e-07"
   maxIntInfeas="2.000000165480742e-09"
   maxPrimalInfeas="1.2000000992884452e-08"
   maxX="4.0000000004065033"
   maxSlack="10.000000000406503"/>
 <variables>
  <variable name="Y(4,20)" index="172" value="-4.8779091876838265e-11"/>
  <variable name="Y(7,11)" index="316" value="1.2194827152555191e-10"/>
  <variable name="Y(8,12)" index="368" value="1"/>
  <variable name="Y(15,30)" index="741" value="1"/>
  <variable name="Y(25,18)" index="1241" value="1"/>
  <variable name="Y(28,22)" index="1398" value="1.0000000003983751"/>
  <variable name="Y(29,23)" index="1450" value="3.3333166720669226e-10"/>
  <variable name="Y(33,9)" index="1640" value="1"/>
  <variable name="Y(35,12)" index="1745" value="6.0973830899718726e-10"/>
  <variable name="Y(42,23)" index="2113" value="1"/>
  <variable name="Y(50,17)" index="2515" value="1"/>
  <variable name="Y(53,21)" index="2672" value="1.0000000001016258"/>
  <variable name="Y(55,23)" index="2776" value="-2.3170926132623101e-10"/>
  <variable name="Y(56,26)" index="2829" value="1"/>
  <variable name="Y(60,4)" index="3012" value="1"/>
  <variable name="Y(63,11)" index="3172" value="2.4390142083563127e-11"/>
  <variable name="Y(68,21)" index="3437" value="-1.0162579329399064e-10"/>
  <variable name="Y(79,20)" index="3997" value="4.8779064720994391e-11"/>
  <variable name="Y(88,12)" index="4448" value="-6.0973830899718726e-10"/>
  <variable name="Y(115,5)" index="5818" value="1"/>
  <variable name="Y(118,10)" index="5976" value="1"/>
  <variable name="Y(119,11)" index="6028" value="0.99999999985366161"/>
  <variable name="Y(122,14)" index="6184" value="1"/>
  <variable name="Y(129,29)" index="6554" value="1"/>
  <variable name="Y(132,2)" index="6682" value="1"/>
  <variable name="Y(135,7)" index="6840" value="1"/>
  <variable name="Y(146,22)" index="7416" value="-3.9837509492957719e-10"/>
  <variable name="Y(148,24)" index="7520" value="1"/>
  <variable name="Y(152,31)" index="7729" value="1"/>
  <variable name="Y(157,13)" index="7968" value="1"/>
  <variable name="Y(169,8)" index="8575" value="1"/>
  <variable name="Y(179,23)" index="9100" value="-1.016224058804613e-10"/>
  <variable name="Y(183,20)" index="9301" value="1"/>
  <variable name="Y(183,27)" index="9307" value="1"/>
  <variable name="X(1,2,132)" index="9617" value="1"/>
  <variable name="X(1,4,42)" index="9713" value="1.0000000020000002"/>
  <variable name="X(1,4,168)" index="9839" value="-1.8109822753375747e-09"/>
  <variable name="X(1,4,179)" index="9850" value="-1.890178901431673e-10"/>
  <variable name="X(1,8,135)" index="9992" value="1"/>
  <variable name="X(2,24,148)" index="10191" value="1"/>
  <variable name="X(2,33,132)" index="10361" value="1"/>
  <variable name="X(3,4,60)" index="10475" value="1"/>
  <variable name="X(3,14,4)" index="10605" value="-7.3168562644950709e-11"/>
  <variable name="X(3,14,53)" index="10654" value="1.0000000000731681"/>
  <variable name="X(3,23,42)" index="10829" value="1"/>
  <variable name="X(3,23,146)" index="10933" value="1.016224058804613e-10"/>
  <variable name="X(3,23,179)" index="10966" value="-1.016224058804613e-10"/>
  <variable name="X(4,1,132)" index="11105" value="1"/>
  <variable name="X(4,3,4)" index="11163" value="-7.3168562644950709e-11"/>
  <variable name="X(4,3,42)" index="11201" value="1"/>
  <variable name="X(4,3,179)" index="11338" value="7.3168562644950709e-11"/>
  <variable name="X(4,35,60)" index="11405" value="1"/>
  <variable name="X(5,6,33)" index="11564" value="1"/>
  <variable name="X(5,16,183)" index="11900" value="1"/>
  <variable name="X(5,30,56)" index="11959" value="1"/>
  <variable name="X(5,36,115)" index="12204" value="1"/>
  <variable name="X(6,5,56)" index="12331" value="1"/>
  <variable name="X(6,17,33)" index="12494" value="1"/>
  <variable name="X(7,8,169)" index="12816" value="1"/>
  <variable name="X(7,26,15)" index="12848" value="1"/>
  <variable name="X(7,38,135)" index="13154" value="1"/>
  <variable name="X(8,1,42)" index="13247" value="1"/>
  <variable name="X(8,1,168)" index="13373" value="1.890178901431673e-10"/>
  <variable name="X(8,1,179)" index="13384" value="-1.890178901431673e-10"/>
  <variable name="X(8,7,135)" index="13526" value="1"/>
  <variable name="X(8,39,169)" index="13746" value="1"/>
  <variable name="X(9,10,118)" index="13881" value="1"/>
  <variable name="X(9,31,28)" index="13977" value="1.0000000003983751"/>
  <variable name="X(9,31,29)" index="13978" value="-1.6666583360334616e-10"/>
  <variable name="X(9,31,55)" index="14004" value="-2.3170926132623101e-10"/>
  <variable name="X(9,40,33)" index="14168" value="1"/>
  <variable name="X(10,9,33)" index="14354" value="1"/>
  <variable name="X(10,17,50)" index="14557" value="1"/>
  <variable name="X(10,41,118)" index="14811" value="1"/>
  <variable name="X(11,12,8)" index="14887" value="1"/>
  <variable name="X(11,12,35)" index="14914" value="6.0973830899718726e-10"/>
  <variable name="X(11,12,88)" index="14967" value="-6.0973830899718726e-10"/>
  <variable name="X(11,20,79)" index="15144" value="4.8779064720994391e-11"/>
  <variable name="X(11,20,115)" index="15180" value="0.99999999995122124"/>
  <variable name="X(11,42,7)" index="15258" value="1.2194827152555191e-10"/>
  <variable name="X(11,42,63)" index="15314" value="2.4390142083563127e-11"/>
  <variable name="X(11,42,119)" index="15370" value="0.99999999985366161"/>
  <variable name="X(12,11,63)" index="15500" value="9.7560568334252508e-11"/>
  <variable name="X(12,11,79)" index="15516" value="3.658338395614689e-11"/>
  <variable name="X(12,11,115)" index="15552" value="1.2194461318715631e-11"/>
  <variable name="X(12,11,119)" index="15556" value="0.99999999985366161"/>
  <variable name="X(12,13,25)" index="15648" value="1"/>
  <variable name="X(12,43,8)" index="15817" value="1"/>
  <variable name="X(12,43,35)" index="15844" value="6.0973830899718726e-10"/>
  <variable name="X(12,43,88)" index="15897" value="-6.0973830899718726e-10"/>
  <variable name="X(13,12,79)" index="16074" value="1.0975381020683628e-10"/>
  <variable name="X(13,12,115)" index="16110" value="3.6584603402278759e-11"/>
  <variable name="X(13,12,119)" index="16114" value="0.99999999985366161"/>
  <variable name="X(13,18,25)" index="16206" value="1"/>
  <variable name="X(13,44,157)" index="16524" value="1"/>
  <variable name="X(14,3,60)" index="16613" value="1"/>
  <variable name="X(14,3,132)" index="16685" value="-7.6217439534504619e-11"/>
  <variable name="X(14,3,146)" index="16699" value="7.6217439534504619e-11"/>
  <variable name="X(14,20,4)" index="16743" value="-4.8779041763300472e-11"/>
  <variable name="X(14,20,8)" index="16747" value="1.0000000020000002"/>
  <variable name="X(14,20,88)" index="16827" value="-1.9512211237174417e-09"/>
  <variable name="X(14,21,53)" index="16978" value="1.0000000001016258"/>
  <variable name="X(14,21,68)" index="16993" value="-1.0162579329399064e-10"/>
  <variable name="X(14,45,122)" index="17233" value="1"/>
  <variable name="X(15,16,115)" index="17412" value="1"/>
  <variable name="X(15,20,183)" index="17666" value="1"/>
  <variable name="X(16,5,115)" index="17784" value="1"/>
  <variable name="X(16,15,183)" index="18038" value="1"/>
  <variable name="X(17,6,56)" index="18097" value="1"/>
  <variable name="X(17,10,33)" index="18260" value="1"/>
  <variable name="X(17,48,50)" index="18463" value="1"/>
  <variable name="X(18,13,157)" index="18756" value="1"/>
  <variable name="X(18,19,122)" index="18907" value="1"/>
  <variable name="X(18,49,25)" index="18996" value="1"/>
  <variable name="X(19,18,157)" index="19314" value="1"/>
  <variable name="X(19,21,122)" index="19465" value="1"/>
  <variable name="X(20,11,7)" index="19536" value="4.8779308610220764e-10"/>
  <variable name="X(20,11,8)" index="19537" value="1"/>
  <variable name="X(20,11,88)" index="19617" value="-4.8779308610220764e-10"/>
  <variable name="X(20,14,60)" index="19775" value="1"/>
  <variable name="X(20,14,68)" index="19783" value="-3.0487737988197192e-10"/>
  <variable name="X(20,14,132)" index="19847" value="7.6217439534504619e-11"/>
  <variable name="X(20,14,146)" index="19861" value="2.286599403474673e-10"/>
  <variable name="X(20,15,115)" index="20016" value="1"/>
  <variable name="X(20,51,4)" index="20091" value="-4.8779091876838265e-11"/>
  <variable name="X(20,51,79)" index="20166" value="4.8779064720994391e-11"/>
  <variable name="X(20,51,183)" index="20270" value="1"/>
  <variable name="X(21,14,122)" index="20395" value="1"/>
  <variable name="X(21,19,157)" index="20616" value="1"/>
  <variable name="X(21,52,53)" index="20698" value="1.0000000001016258"/>
  <variable name="X(21,52,68)" index="20713" value="-1.0162579329399064e-10"/>
  <variable name="X(22,23,53)" index="20884" value="1.0000000002317093"/>
  <variable name="X(22,23,55)" index="20886" value="-2.3170926132623101e-10"/>
  <variable name="X(22,31,152)" index="21169" value="1"/>
  <variable name="X(22,53,28)" index="21231" value="1.0000000003983751"/>
  <variable name="X(22,53,146)" index="21349" value="-3.9837509492957719e-10"/>
  <variable name="X(23,3,53)" index="21442" value="1"/>
  <variable name="X(23,22,146)" index="21721" value="-2.000000165480742e-09"/>
  <variable name="X(23,22,152)" index="21727" value="1.0000000020000002"/>
  <variable name="X(23,54,29)" index="21790" value="3.3333166720669226e-10"/>
  <variable name="X(23,54,42)" index="21803" value="1"/>
  <variable name="X(23,54,55)" index="21816" value="-2.3170926132623101e-10"/>
  <variable name="X(23,54,179)" index="21940" value="-1.016224058804613e-10"/>
  <variable name="X(24,55,148)" index="22095" value="1"/>
  <variable name="X(26,7,169)" index="22302" value="1"/>
  <variable name="X(26,30,15)" index="22334" value="1"/>
  <variable name="X(26,57,56)" index="22561" value="1"/>
  <variable name="X(27,26,183)" index="22874" value="1"/>
  <variable name="X(29,60,129)" index="23006" value="1"/>
  <variable name="X(30,5,183)" index="23246" value="1"/>
  <variable name="X(30,26,56)" index="23305" value="1"/>
  <variable name="X(30,29,129)" index="23564" value="1"/>
  <variable name="X(30,61,15)" index="23636" value="1"/>
  <variable name="X(31,9,118)" index="23925" value="1"/>
  <variable name="X(31,22,28)" index="24021" value="1.0000000003983751"/>
  <variable name="X(31,22,29)" index="24022" value="-1.6666583360334616e-10"/>
  <variable name="X(31,22,55)" index="24048" value="-2.3170926132623101e-10"/>
  <variable name="X(31,62,152)" index="24331" value="1"/>
  <variable name="C(4,3)" index="24389" value="-7.3168562644950709e-11"/>
  <variable name="C(4,14)" index="24390" value="-1.4633712528990142e-10"/>
  <variable name="C(4,20)" index="24391" value="-1.9511616705320189e-10"/>
  <variable name="C(7,11)" index="24402" value="4.8779308610220764e-10"/>
  <variable name="C(8,20)" index="24405" value="1.0000000020000002"/>
  <variable name="C(8,11)" index="24406" value="2.0000000020000002"/>
  <variable name="C(8,12)" index="24407" value="3.0000000030000002"/>
  <variable name="C(15,26)" index="24439" value="1"/>
  <variable name="C(15,30)" index="24440" value="2"/>
  <variable name="C(25,13)" index="24498" value="1"/>
  <variable name="C(25,18)" index="24499" value="2"/>
  <variable name="C(28,31)" index="24516" value="1.0000000003983751"/>
  <variable name="C(28,22)" index="24517" value="2.0000000007967502"/>
  <variable name="C(29,22)" index="24523" value="-1.6666583360334616e-10"/>
  <variable name="C(33,6)" index="24540" value="1"/>
  <variable name="C(33,17)" index="24541" value="2"/>
  <variable name="C(33,10)" index="24542" value="3"/>
  <variable name="C(33,9)" index="24543" value="4"/>
  <variable name="C(35,12)" index="24560" value="1.2194766179943745e-09"/>
  <variable name="C(42,1)" index="24609" value="1"/>
  <variable name="C(42,4)" index="24610" value="2.0000000020000002"/>
  <variable name="C(42,3)" index="24611" value="3"/>
  <variable name="C(42,23)" index="24612" value="4"/>
  <variable name="C(50,17)" index="24655" value="1"/>
  <variable name="C(53,23)" index="24677" value="1.0000000002317093"/>
  <variable name="C(53,3)" index="24678" value="2.0000000002317093"/>
  <variable name="C(53,14)" index="24679" value="3.0000000003048775"/>
  <variable name="C(53,21)" index="24680" value="4.0000000004065033"/>
  <variable name="C(55,31)" index="24687" value="-2.3170926132623101e-10"/>
  <variable name="C(55,22)" index="24688" value="-4.6341852265246202e-10"/>
  <variable name="C(55,23)" index="24689" value="-6.9512778397869304e-10"/>
  <variable name="C(56,6)" index="24692" value="0.99999999999999911"/>
  <variable name="C(56,5)" index="24693" value="2"/>
  <variable name="C(56,30)" index="24694" value="3"/>
  <variable name="C(56,26)" index="24695" value="4"/>
  <variable name="C(60,14)" index="24710" value="1"/>
  <variable name="C(60,3)" index="24711" value="2"/>
  <variable name="C(60,4)" index="24712" value="3"/>
  <variable name="C(63,11)" index="24731" value="9.7560568334252508e-11"/>
  <variable name="C(68,14)" index="24751" value="-3.0487737988197192e-10"/>
  <variable name="C(68,21)" index="24752" value="-4.0650317317596255e-10"/>
  <variable name="C(79,12)" index="24815" value="1.0975381020683628e-10"/>
  <variable name="C(79,11)" index="24816" value="1.4633719416298317e-10"/>
  <variable name="C(79,20)" index="24817" value="1.9511625888397757e-10"/>
  <variable name="C(88,20)" index="24867" value="-1.9512211237174417e-09"/>
  <variable name="C(88,11)" index="24868" value="-2.4390142098196496e-09"/>
  <variable name="C(88,12)" index="24869" value="-2.438953235988749e-09"/>
  <variable name="C(115,12)" index="25000" value="3.6584603402278759e-11"/>
  <variable name="C(115,11)" index="25001" value="4.8779064720994391e-11"/>
  <variable name="C(115,20)" index="25002" value="1.0000000000000002"/>
  <variable name="C(115,15)" index="25003" value="2"/>
  <variable name="C(115,16)" index="25004" value="3"/>
  <variable name="C(115,5)" index="25005" value="4"/>
  <variable name="C(118,9)" index="25031" value="1.0000000000000004"/>
  <variable name="C(118,10)" index="25032" value="2.0000000000000004"/>
  <variable name="C(119,12)" index="25035" value="0.99999999985366161"/>
  <variable name="C(119,11)" index="25036" value="1.9999999997073232"/>
  <variable name="C(122,19)" index="25043" value="1"/>
  <variable name="C(122,21)" index="25044" value="2"/>
  <variable name="C(122,14)" index="25045" value="3"/>
  <variable name="C(129,29)" index="25096" value="1"/>
  <variable name="C(132,14)" index="25115" value="7.6217439534504619e-11"/>
  <variable name="C(132,1)" index="25118" value="0.99999999999999956"/>
  <variable name="C(132,2)" index="25119" value="1.9999999999999996"/>
  <variable name="C(135,8)" index="25133" value="1"/>
  <variable name="C(135,7)" index="25134" value="2"/>
  <variable name="C(146,14)" index="25181" value="2.286599403474673e-10"/>
  <variable name="C(146,3)" index="25182" value="3.0487737988197192e-10"/>
  <variable name="C(146,23)" index="25183" value="4.0649978576243322e-10"/>
  <variable name="C(146,22)" index="25184" value="-1.5935003797183088e-09"/>
  <variable name="C(148,24)" index="25195" value="1"/>
  <variable name="C(152,22)" index="25217" value="1.0000000020000002"/>
  <variable name="C(152,31)" index="25218" value="2.0000000020000002"/>
  <variable name="C(157,21)" index="25239" value="1"/>
  <variable name="C(157,19)" index="25240" value="2"/>
  <variable name="C(157,18)" index="25241" value="3"/>
  <variable name="C(157,13)" index="25242" value="4"/>
  <variable name="C(168,1)" index="25299" value="1.890178901431673e-10"/>
  <variable name="C(168,4)" index="25300" value="-1.6219643851944073e-09"/>
  <variable name="C(169,7)" index="25302" value="1"/>
  <variable name="C(169,8)" index="25303" value="2"/>
  <variable name="C(179,1)" index="25375" value="-1.890178901431673e-10"/>
  <variable name="C(179,4)" index="25376" value="-3.7803578028633461e-10"/>
  <variable name="C(179,3)" index="25377" value="-3.048672176413839e-10"/>
  <variable name="C(179,23)" index="25378" value="-4.064896235218452e-10"/>
  <variable name="C(183,5)" index="25395" value="1.0000000000000004"/>
  <variable name="C(183,16)" index="25396" value="2.0000000000000004"/>
  <variable name="C(183,15)" index="25397" value="2.9999999999999982"/>
  <variable name="C(183,20)" index="25398" value="4"/>
 </variables>
</CPLEXSolution>
